21
0.00 0.0 -0.70
0.04 0.0 -0.69
0.09 0.0 -0.65
0.13 0.0 -0.61
0.16 0.0 -0.54
0.17 0.0 -0.46
0.17 0.0 -0.35
0.16 0.0 -0.25
0.15 0.0 -0.14
0.13 0.0  0.00
0.00 0.0  0.00
-0.13 0.0  0.00
-0.15 0.0 -0.14
-0.16 0.0 -0.25
-0.17 0.0 -0.35
-0.17 0.0 -0.46
-0.16 0.0 -0.54
-0.13 0.0 -0.61
-0.09 0.0 -0.65
-0.04 0.0 -0.69
-0.00 0.0 -0.70
0